
Gurobi 9.0.3 (win64, Java) logging started Tue Feb 23 17:46:39 2021


--------------------------------------------
Warning: your license will expire in 9 days
--------------------------------------------

Academic license - for non-commercial use only

Gurobi 9.0.3 (win64, Java) logging started Tue Feb 23 17:46:49 2021


--------------------------------------------
Warning: your license will expire in 9 days
--------------------------------------------

Academic license - for non-commercial use only

Gurobi 9.0.3 (win64, Java) logging started Tue Feb 23 17:47:02 2021


--------------------------------------------
Warning: your license will expire in 9 days
--------------------------------------------

Academic license - for non-commercial use only

Gurobi 9.0.3 (win64, Java) logging started Tue Feb 23 17:47:13 2021


--------------------------------------------
Warning: your license will expire in 9 days
--------------------------------------------

Academic license - for non-commercial use only

Gurobi 9.0.3 (win64, Java) logging started Tue Feb 23 17:47:22 2021


--------------------------------------------
Warning: your license will expire in 9 days
--------------------------------------------

Academic license - for non-commercial use only

Gurobi 9.0.3 (win64, Java) logging started Tue Feb 23 17:47:34 2021


--------------------------------------------
Warning: your license will expire in 9 days
--------------------------------------------

Academic license - for non-commercial use only

Gurobi 9.0.3 (win64, Java) logging started Tue Feb 23 17:47:49 2021


--------------------------------------------
Warning: your license will expire in 9 days
--------------------------------------------

Academic license - for non-commercial use only

Gurobi 9.0.3 (win64, Java) logging started Tue Feb 23 17:48:07 2021


--------------------------------------------
Warning: your license will expire in 9 days
--------------------------------------------

Academic license - for non-commercial use only

Gurobi 9.0.3 (win64, Java) logging started Tue Feb 23 17:48:22 2021


--------------------------------------------
Warning: your license will expire in 9 days
--------------------------------------------

Academic license - for non-commercial use only

Gurobi 9.0.3 (win64, Java) logging started Tue Feb 23 17:48:37 2021


--------------------------------------------
Warning: your license will expire in 9 days
--------------------------------------------

Academic license - for non-commercial use only

Gurobi 9.0.3 (win64, Java) logging started Tue Feb 23 17:49:01 2021


--------------------------------------------
Warning: your license will expire in 9 days
--------------------------------------------

Academic license - for non-commercial use only

Gurobi 9.0.3 (win64, Java) logging started Tue Feb 23 17:49:41 2021


--------------------------------------------
Warning: your license will expire in 9 days
--------------------------------------------

Academic license - for non-commercial use only
